p tw 62 1861 1 
1 2 
1 3 
1 4 
1 5 
1 6 
1 7 
1 8 
1 9 
1 10 
1 11 
1 12 
1 13 
1 14 
1 15 
1 16 
1 17 
1 18 
1 19 
1 20 
1 21 
1 22 
1 23 
1 24 
1 25 
1 26 
1 27 
1 28 
1 29 
1 30 
1 31 
2 32 
2 33 
2 34 
2 35 
2 36 
2 37 
2 38 
2 39 
2 40 
2 41 
2 42 
2 43 
2 44 
2 45 
2 46 
2 47 
2 48 
2 49 
2 50 
2 51 
2 52 
2 53 
2 54 
2 55 
2 56 
2 57 
2 58 
2 59 
2 60 
2 61 
2 62 
1 32 
1 33 
1 34 
1 35 
1 36 
1 37 
2 32 
2 38 
2 39 
2 40 
2 41 
2 42 
3 32 
3 43 
3 44 
3 45 
3 46 
3 47 
4 32 
4 48 
4 49 
4 50 
4 51 
4 52 
5 32 
5 53 
5 54 
5 55 
5 56 
5 57 
6 32 
6 58 
6 59 
6 60 
6 61 
6 62 
7 33 
7 38 
7 43 
7 48 
7 53 
7 58 
8 33 
8 39 
8 44 
8 49 
8 54 
8 59 
9 33 
9 40 
9 45 
9 50 
9 55 
9 60 
10 33 
10 41 
10 46 
10 51 
10 56 
10 61 
11 33 
11 42 
11 47 
11 52 
11 57 
11 62 
12 34 
12 38 
12 47 
12 51 
12 55 
12 59 
13 34 
13 39 
13 43 
13 52 
13 56 
13 60 
14 34 
14 40 
14 44 
14 48 
14 57 
14 61 
15 34 
15 41 
15 45 
15 49 
15 53 
15 62 
16 34 
16 42 
16 46 
16 50 
16 54 
16 58 
17 35 
17 38 
17 46 
17 49 
17 57 
17 60 
18 35 
18 39 
18 47 
18 50 
18 53 
18 61 
19 35 
19 40 
19 43 
19 51 
19 54 
19 62 
20 35 
20 41 
20 44 
20 52 
20 55 
20 58 
21 35 
21 42 
21 45 
21 48 
21 56 
21 59 
22 36 
22 38 
22 45 
22 52 
22 54 
22 61 
23 36 
23 39 
23 46 
23 48 
23 55 
23 62 
24 36 
24 40 
24 47 
24 49 
24 56 
24 58 
25 36 
25 41 
25 43 
25 50 
25 57 
25 59 
26 36 
26 42 
26 44 
26 51 
26 53 
26 60 
27 37 
27 38 
27 44 
27 50 
27 56 
27 62 
28 37 
28 39 
28 45 
28 51 
28 57 
28 58 
29 37 
29 40 
29 46 
29 52 
29 53 
29 59 
30 37 
30 41 
30 47 
30 48 
30 54 
30 60 
31 37 
31 42 
31 43 
31 49 
31 55 
31 61 
